Sample problem 10 -- Solute transport in a semi-infinite 
aquifer of finite width and height with a 'patch' source
Model Data: Y1=400 ft, Y2=2000 ft, Z1=50 ft, Z2=100 ft
V=1.0 ft/d, Dx=200.0 ft**2/d, Dy=60.0 ft**2/d, DZ=10 ft**2/d W=3000 ft, H=100 ft
C0=1000.0 mg/L
=====
31  31  11  2   350 350 1
MOL/L     M/D       M**2/D    PER DAY   METERS    DAYS
0.0282064 0.3048    29.380596 10.799988 10.799988 0.0       
914.4     304.8     106.68    624.84    137.16    259.08
0.0       45.72     91.44     137.16    182.88    228.6     274.32    320.04
365.76    411.48    457.2     502.92    548.64    594.36    640.08    685.8
731.52    777.24    822.96    868.68    914.4     960.12    1005.84   1051.56
1097.28   1143.0    1188.72   1234.44   1280.16   1325.88   1371.6  
0.0       30.48     60.96     91.44     121.92    152.4     182.88    213.36
243.84    274.32    304.8     335.28    365.76    396.24    426.72    457.2
487.68    518.16    548.64    579.12    609.6     640.08    670.56    701.04
731.52    762.0     792.48    822.96    853.44    883.92    914.4  
0.0       30.48     60.96     91.44     121.92    152.4     182.88    213.36
243.84    274.32    304.8     
1500.0    3000.0
750.0     750.0     0.1
